Version identifier: 12.10.0.0 | 2019-11-26 | 843d4de
CPXPARAM_WorkMem                                 28672
Tried aggregator 2 times.
Aggregator did 75 substitutions.
Reduced MIP has 319 rows, 360 columns, and 1504 nonzeros.
Reduced MIP has 360 binaries, 0 generals, 0 SOSs, and 0 indicators.
Presolve time = 0,00 sec. (1,46 ticks)
Found incumbent of value 300,000000 after 0,00 sec. (2,41 ticks)
Probing time = 0,00 sec. (0,73 ticks)
Tried aggregator 1 time.
Detecting symmetries...
MIP Presolve eliminated 76 rows and 0 columns.
MIP Presolve added 152 rows and 0 columns.
Reduced MIP has 395 rows, 360 columns, and 1580 nonzeros.
Reduced MIP has 360 binaries, 0 generals, 0 SOSs, and 0 indicators.
Presolve time = 0,00 sec. (1,88 ticks)
Probing time = 0,00 sec. (0,71 ticks)
Clique table members: 1099.
MIP emphasis: balance optimality and feasibility.
MIP search method: dynamic search.
Parallel mode: deterministic, using up to 16 threads.
Root relaxation solution time = 0,00 sec. (1,99 ticks)

        Nodes                                         Cuts/
   Node  Left     Objective  IInf  Best Integer    Best Bound    ItCnt     Gap

*     0+    0                          300,0000        0,0000           100,00%
*     0+    0                          182,0000        0,0000           100,00%
*     0+    0                          179,0000        0,0000           100,00%
      0     0       75,0000   356      179,0000       75,0000      151   58,10%
      0     0       76,7008   356      179,0000      Cuts: 39      214   57,15%
      0     0       78,2336   356      179,0000      Cuts: 86      274   56,29%
*     0+    0                          174,0000       78,2336            55,04%
      0     0       78,7381   356      174,0000      Cuts: 96      311   54,75%
      0     0       78,9112   356      174,0000      Cuts: 59      359   54,65%
      0     0       79,0993   356      174,0000     Cuts: 154      405   54,54%
      0     0       79,1320   356      174,0000   ZeroHalf: 5      413   54,52%
      0     0       79,1338   356      174,0000   ZeroHalf: 1      414   54,52%
*     0+    0                          170,0000       79,1338            53,45%
      0     2       79,1338   359      170,0000       86,4927      414   49,12%
Elapsed time = 0,20 sec. (109,95 ticks, tree = 0,02 MB, solutions = 5)
*   601+  384                          166,0000       92,5184            44,27%
   1939  1094        cutoff            166,0000       99,4799    64310   40,07%
   2083   625      146,2214    73      166,0000       99,4799    26780   40,07%
   2683  1520        cutoff            166,0000      117,3442   102658   29,31%
*  3430+ 1869                          165,0000      119,5693            27,53%
   4680  2150        cutoff            165,0000      131,8223   177344   20,11%

Performing restart 1

Repeating presolve.
Tried aggregator 1 time.
Reduced MIP has 395 rows, 360 columns, and 1580 nonzeros.
Reduced MIP has 360 binaries, 0 generals, 0 SOSs, and 0 indicators.
Presolve time = 0,00 sec. (0,97 ticks)
Tried aggregator 1 time.
Reduced MIP has 395 rows, 360 columns, and 1580 nonzeros.
Reduced MIP has 360 binaries, 0 generals, 0 SOSs, and 0 indicators.
Presolve time = 0,00 sec. (1,30 ticks)
Represolve time = 0,01 sec. (11,54 ticks)
   6802     0       80,0442   359      165,0000      Cuts: 10   301084   13,94%
   6802     0       80,5465   359      165,0000      Cuts: 10   301149   13,94%
   6802     0       81,1887   359      165,0000      Cuts: 11   301218   13,94%
   6802     0       81,4553   359      165,0000      Cuts: 12   301264   13,94%
   6802     2       81,4553   358      165,0000      142,0026   301264   13,94%
   6812     7       94,2063   338      165,0000      142,0026   302179   13,94%
   7771   539      134,0486   259      165,0000      142,0026   346710   13,94%
   8948  1463      155,4167    46      165,0000      142,0026   398850   13,94%
  10199  2381      132,0404   272      165,0000      142,0026   470407   13,94%
  15440  5892      133,9798   274      165,0000      142,0026   736890   13,94%
Elapsed time = 4,32 sec. (3669,14 ticks, tree = 8,06 MB, solutions = 7)

Performing restart 2

Repeating presolve.
Tried aggregator 1 time.
Reduced MIP has 395 rows, 360 columns, and 1580 nonzeros.
Reduced MIP has 360 binaries, 0 generals, 0 SOSs, and 0 indicators.
Presolve time = 0,00 sec. (0,97 ticks)
Tried aggregator 1 time.
Reduced MIP has 395 rows, 360 columns, and 1580 nonzeros.
Reduced MIP has 360 binaries, 0 generals, 0 SOSs, and 0 indicators.
Presolve time = 0,00 sec. (1,30 ticks)
Represolve time = 0,02 sec. (16,72 ticks)
  15545     0       82,8948   358      165,0000       Cuts: 9   763018   13,94%
  15545     0       82,9927   358      165,0000       Cuts: 4   763062   13,94%
  15545     0       83,3214   358      165,0000       Cuts: 9   763124   13,94%
  15545     0       83,4058   358      165,0000      Fract: 2   763165   13,94%
  15545     0       84,5842   358      165,0000      Cuts: 10   763291   13,94%
  15545     0       85,0105   358      165,0000      Cuts: 11   763383   13,94%
  15545     0       85,5452   358      165,0000      Cuts: 13   763469   13,94%
  17674  1040      134,4692   276      165,0000      142,0026   842914   13,94%
  23392  1817      162,5014   153      165,0000      154,3992  1173137    6,42%
* 24003  1535      integral     0      164,0000      156,8692  1203136    4,35%

Clique cuts applied:  1
Cover cuts applied:  704
Flow cuts applied:  13
Mixed integer rounding cuts applied:  79
Zero-half cuts applied:  4
Lift and project cuts applied:  2
Gomory fractional cuts applied:  60

Root node processing (before b&c):
  Real time             =    0,20 sec. (109,47 ticks)
Parallel b&c, 16 threads:
  Real time             =    6,61 sec. (5617,17 ticks)
  Sync time (average)   =    1,61 sec.
  Wait time (average)   =    0,01 sec.
                          ------------
Total (root+branch&cut) =    6,81 sec. (5726,64 ticks)
